120
150
21
83
21
85
71
55
77
92
95
42
64
64
82
69
26
31
87
40
81
98
93
26
26
71
29
99
20
51
92
38
39
20
40
25
39
45
61
74
29
96
51
28
51
48
100
48
43
79
78
92
28
87
74
63
87
30
71
23
81
23
96
78
76
100
78
80
100
100
48
75
78
48
52
25
48
100
23
82
69
82
68
43
80
39
20
39
87
82
31
63
99
87
51
92
100
95
55
100
100
29
26
48
72
58
100
72
48
98
48
68
42
75
52
100
48
63
77
72
70
72
